c Source: TUDataset MUTAG, graph #116
c Original: n=10, m=10
c Augmented: +5 edges, n=12 -> m=15, circuit_rank=4
c Augmented to satisfy Eulerian condition (no parallel edges)
p sp 12
e 7 8
e 1 2
e 3 4
e 3 10
e 4 5
e 2 3
e 6 7
e 7 9
e 5 6
e 1 6
e 3 11
e 10 11
e 6 12
e 7 12
e 8 9
